Solver command line: ['C:\\Program Files\\IBM\\ILOG\\CPLEX_Studio221\\cplex\\bin\\x64_win64\\cplex.exe']


Welcome to IBM(R) ILOG(R) CPLEX(R) Interactive Optimizer 22.1.0.0
  with Simplex, Mixed Integer & Barrier Optimizers
5725-A06 5725-A29 5724-Y48 5724-Y49 5724-Y54 5724-Y55 5655-Y21
Copyright IBM Corp. 1988, 2022.  All Rights Reserved.

Type 'help' for a list of available commands.
Type 'help' followed by a command name for more
information on commands.

CPLEX> Logfile 'cplex.log' closed.
Logfile 'data\30_bus\3_trips_per_bus\3_6_3\step1.log' open.
CPLEX> New value for mixed integer solutions limit: 1
CPLEX> New value for time limit in seconds: 60
CPLEX> New value for default parallel thread count: 1
CPLEX> Problem 'C:\Users\Mathis\AppData\Local\Temp\tmpa3kkq9cu.pyomo.lp' read.
Read time = 0.05 sec. (6.42 ticks)
CPLEX> Problem name         : C:\Users\Mathis\AppData\Local\Temp\tmpa3kkq9cu.pyomo.lp
Objective sense      : Minimize
Variables            :   32782  [Nneg: 14972,  Binary: 17810]
Objective nonzeros   :   17760
Linear constraints   :   51930  [Less: 48659,  Greater: 900,  Equal: 2371]
  Nonzeros           :  200785
  RHS nonzeros       :   37465

Variables            : Min LB: 0.000000         Max UB: 1.000000       
Objective nonzeros   : Min   : 1.000000         Max   : 605284.0       
Linear constraints   :
  Nonzeros           : Min   : 0.2192982        Max   : 4669.000       
  RHS nonzeros       : Min   : 1.000000         Max   : 4489.000       
CPLEX> Version identifier: 22.1.0.0 | 2022-03-09 | 1a383f8ce
CPXPARAM_Threads                                 1
CPXPARAM_MIP_Limits_Solutions                    1
CPXPARAM_TimeLimit                               60
Tried aggregator 4 times.
MIP Presolve eliminated 4550 rows and 1039 columns.
MIP Presolve modified 40 coefficients.
Aggregator did 294 substitutions.
Reduced MIP has 47086 rows, 31449 columns, and 187799 nonzeros.
Reduced MIP has 17272 binaries, 0 generals, 0 SOSs, and 0 indicators.
Presolve time = 0.20 sec. (248.97 ticks)
Probing fixed 185 vars, tightened 676 bounds.
Probing time = 0.78 sec. (597.30 ticks)
Cover probing fixed 0 vars, tightened 65 bounds.
Tried aggregator 2 times.
Detecting symmetries...
MIP Presolve eliminated 1473 rows and 1563 columns.
MIP Presolve modified 27781 coefficients.
Aggregator did 5 substitutions.
Reduced MIP has 45608 rows, 29881 columns, and 182278 nonzeros.
Reduced MIP has 17086 binaries, 293 generals, 0 SOSs, and 0 indicators.
Presolve time = 0.27 sec. (254.48 ticks)
Probing fixed 76 vars, tightened 436 bounds.
Probing time = 0.36 sec. (228.77 ticks)
Cover probing fixed 0 vars, tightened 79 bounds.
Clique table members: 87712.
Tightened 31 constraints.
MIP emphasis: balance optimality and feasibility.
MIP search method: dynamic search.
Parallel mode: none, using 1 thread.
Root relaxation solution time = 6.69 sec. (9477.67 ticks)

        Nodes                                         Cuts/
   Node  Left     Objective  IInf  Best Integer    Best Bound    ItCnt     Gap

      0     0   1.14998e+07   151                 1.14998e+07    36622         
      0     0   1.14998e+07    95                    Cuts: 41    36715         
      0     0   1.14998e+07   135                   Cuts: 149    37085         
      0     0   1.14998e+07   118                    Cuts: 76    37409         
      0     0   1.14998e+07   118                    Cuts: 57    37809         
      0     2   1.14998e+07   114                 1.14998e+07    37809         
Elapsed time = 22.55 sec. (28278.07 ticks, tree = 0.01 MB, solutions = 0)
      2     4   1.14998e+07   116                 1.14998e+07    38611         
      8    10   1.14998e+07    71                 1.14998e+07    39337         
     12    14   1.14998e+07    76                 1.14998e+07    40015         
     15    15   1.14998e+07    62                 1.14998e+07    40794         
     18    18   1.14998e+07    50                 1.14998e+07    42334         
     22    20    infeasible                       1.14998e+07    43377         
*    29     0      integral     0   1.14998e+07   1.14998e+07    43624    0.00%

Clique cuts applied:  74
Implied bound cuts applied:  3
Flow cuts applied:  2
Lift and project cuts applied:  1
Gomory fractional cuts applied:  2

Root node processing (before b&c):
  Real time             =   22.23 sec. (28011.48 ticks)
Sequential b&c:
  Real time             =    2.39 sec. (2443.01 ticks)
                          ------------
Total (root+branch&cut) =   24.63 sec. (30454.48 ticks)

Solution pool: 1 solution saved.

MIP - Integer optimal solution:  Objective =  1.1499783000e+07
Solution time =   24.63 sec.  Iterations = 43624  Nodes = 30
Deterministic time = 30454.58 ticks  (1236.73 ticks/sec)

CPLEX> Incumbent solution written to file 'C:\Users\Mathis\AppData\Local\Temp\tmpjd1fqzxi.cplex.sol'.
CPLEX> 
